s td 16 75 90
b 1 1 2 3 7 8 9 10 11 12 13 14 15 16 17 19 20 21 23 24 25 26 27 28 29 31 32 33 34 35 36 37 38 39 40 41 42 43 44 45 46 48 49 51 52 53 54 55 56 59 61 62 63 64 65 66 67 68 69 70 71 72 73 74 75 76 77 79 81 82 83 84 86 87 89 90
b 2 1 2 7 8 9 10 11 12 13 14 15 16 17 19 20 21 23 24 25 26 27 28 29 31 32 33 34 35 36 37 38 39 40 41 42 43 44 45 46 48 49 51 52 53 54 55 56 57 59 61 62 63 64 65 66 67 68 69 70 71 72 73 74 75 76 77 79 81 82 83 84 86 87 89 90
b 3 1 2 4 7 8 9 10 11 12 13 14 15 16 17 19 21 23 24 25 26 27 28 29 31 32 33 34 35 36 37 38 39 40 41 42 43 44 45 46 48 49 51 52 53 54 55 56 57 59 61 62 64 65 66 67 68 69 70 71 72 73 74 75 76 77 79 81 82 83 84 86 87 89 90
b 4 1 2 4 6 7 8 9 10 11 12 13 14 15 16 19 21 23 24 25 26 27 28 29 31 33 34 35 36 37 38 39 40 41 42 43 44 45 46 48 49 51 52 53 54 55 56 57 59 61 62 64 65 66 67 68 69 70 71 72 73 74 75 76 77 79 81 82 83 84 86 87 89 90
b 5 1 2 4 6 7 8 9 10 11 12 13 14 15 16 19 21 23 24 25 26 27 28 29 31 33 34 35 36 37 38 39 40 41 42 43 44 45 46 49 51 52 53 54 55 56 57 59 60 61 62 64 65 66 67 68 69 70 71 72 73 74 75 76 77 79 81 82 83 84 87 89 90
b 6 1 4 6 7 8 9 10 11 12 13 14 15 16 19 21 23 25 26 27 28 29 31 33 35 36 37 38 39 40 41 43 44 45 46 49 51 52 53 54 55 56 57 58 59 60 61 62 64 65 66 67 68 69 70 71 72 73 74 75 76 77 79 81 82 83 84 87 89 90
b 7 1 4 6 7 9 10 11 12 13 14 15 16 21 22 23 25 26 27 28 29 31 33 35 36 37 38 39 40 41 43 44 45 46 49 51 52 53 55 56 58 59 60 61 62 65 66 67 68 69 70 71 72 73 75 76 77 79 81 82 83 84 87 89 90
b 8 1 4 6 7 9 10 11 13 14 15 16 21 22 23 25 27 28 31 33 35 36 39 40 41 43 45 46 47 49 51 52 53 55 56 58 59 60 61 62 65 67 68 69 70 71 72 75 76 77 79 81 82 83 84 87 90
b 9 4 5 6 7 9 10 13 14 16 22 23 25 27 28 31 33 39 40 43 46 47 51 52 53 55 58 59 60 61 62 67 69 70 71 75 76 77 79 81 82 83 84 87
b 10 1 2 3 7 8 9 10 11 12 13 14 15 16 17 19 20 21 23 24 25 26 27 28 29 31 32 33 34 35 36 37 38 39 40 41 42 43 44 45 46 48 49 51 52 53 54 55 56 59 61 62 63 64 65 66 67 68 69 70 71 72 73 74 75 76 77 78 79 81 82 84 86 87 89 90
b 11 1 2 3 7 8 9 10 11 12 13 14 15 16 17 19 20 21 23 25 26 27 28 29 30 31 32 33 34 35 36 37 38 39 40 41 42 43 44 45 46 48 51 52 53 54 55 56 59 61 62 63 64 65 66 67 68 69 70 71 72 73 74 75 76 77 78 79 81 82 84 86 87 89 90
b 12 1 2 3 7 8 9 10 11 13 14 15 16 17 19 20 21 25 26 27 28 29 30 31 32 33 34 35 36 38 39 40 41 42 43 44 45 46 48 51 52 53 54 55 56 59 61 62 63 64 65 66 67 68 69 70 71 72 73 74 75 76 77 78 79 81 82 84 86 87 88 89 90
b 13 1 2 3 7 8 9 10 11 13 14 15 16 17 19 20 21 25 26 27 28 29 31 32 33 34 36 38 39 40 41 42 43 44 45 46 48 52 53 54 55 56 59 61 62 63 64 65 66 67 68 69 70 71 72 73 74 75 76 77 78 79 81 82 84 85 86 87 88 89 90
b 14 1 2 3 7 8 9 10 11 15 17 19 20 21 25 26 27 28 29 31 32 33 34 38 39 40 41 42 43 44 45 46 48 52 54 55 56 59 61 62 63 64 65 66 67 68 69 70 71 72 73 74 75 76 77 78 79 80 81 82 85 86 87 88 90
b 15 1 2 3 7 8 9 10 11 15 17 18 19 21 25 26 29 31 33 34 40 42 43 46 48 52 55 62 63 64 65 67 68 69 70 71 72 74 76 77 78 79 80 81 86 87 88 90
b 16 1 2 3 7 10 12 13 20 21 23 25 29 31 34 35 36 37 39 41 42 43 44 45 49 50 51 52 53 56 59 61 62 63 64 65 69 70 71 75 78 79 81 86 87 90
1 2
1 10
2 3
3 4
4 5
5 6
6 7
7 8
8 9
10 11
10 16
11 12
12 13
13 14
14 15
